Minimize
	value: tt

Subject to
tt + 2000 s_1_1 > 0
tt - t_1_1 - 2000.000000 s_1_1 > -1978.644600
tt + 2000 s_2_1 > 0
tt - t_2_1 - 2000.000000 s_2_1 > -1967.424500
tt + 2000 s_1_2 > 0
tt - t_1_2 - 2000.000000 s_1_2 > -1994.513090
tt + 2000 s_2_2 > 0
tt - t_2_2 - 2000.000000 s_2_2 > -1990.509900
tt + 2000 s_1_3 > 0
tt - t_1_3 - 2000.000000 s_1_3 > -1995.367900
tt + 2000 s_2_3 > 0
tt - t_2_3 - 2000.000000 s_2_3 > -1993.722800
tt + 2000 s_1_4 > 0
tt - t_1_4 - 2000.000000 s_1_4 > -1960.682480
tt + 2000 s_2_4 > 0
tt - t_2_4 - 2000.000000 s_2_4 > -1941.281800
tt + 2000 s_1_5 > 0
tt - t_1_5 - 2066.751033 s_1_5 + 66.751033 s_1_3 > -1999.456380
tt + 2000 s_2_5 > 0
tt - t_2_5 - 2133.502067 s_2_5 + 133.502067 s_2_3 > -1998.313200
s_1_1 + s_2_1  = 1
s_1_2 + s_2_2  = 1
s_1_3 + s_2_3  = 1
s_1_4 + s_2_4  = 1
s_1_5 + s_2_5  = 1
t_1_1 - t_1_2 + 2000.000000 u_1_1_2 > 5.486910
t_1_2 - t_1_1 - 2000.000000 u_1_1_2 > -1978.644600
t_2_1 - t_2_2 + 2000.000000 u_2_1_2 > 9.490100
t_2_2 - t_2_1 - 2000.000000 u_2_1_2 > -1967.424500
t_1_1 - t_1_3 + 2000.000000 u_1_1_3 > 4.632100
t_1_3 - t_1_1 - 2000.000000 u_1_1_3 > -1978.644600
t_2_1 - t_2_3 + 2000.000000 u_2_1_3 > 6.277200
t_2_3 - t_2_1 - 2000.000000 u_2_1_3 > -1967.424500
t_1_1 - t_1_4 + 2000.000000 u_1_1_4 > 39.317520
t_1_4 - t_1_1 - 2000.000000 u_1_1_4 > -1978.644600
t_2_1 - t_2_4 + 2000.000000 u_2_1_4 > 58.718200
t_2_4 - t_2_1 - 2000.000000 u_2_1_4 > -1967.424500
t_1_5 - t_1_1 - 2000.000000 s_1_1 > -1974.789133
t_1_5 - t_2_1 - 2000.000000 s_2_1 > -1959.713567
t_2_5 - t_1_1 - 2000.000000 s_1_1 > -1974.789133
t_2_5 - t_2_1 - 2000.000000 s_2_1 > -1959.713567
t_1_2 - t_1_1 + 2000.000000 u_1_2_1 > 21.355400
t_1_1 - t_1_2 - 2000.000000 u_1_2_1 > -1994.513090
t_2_2 - t_2_1 + 2000.000000 u_2_2_1 > 32.575500
t_2_1 - t_2_2 - 2000.000000 u_2_2_1 > -1990.509900
t_1_2 - t_1_3 + 2000.000000 u_1_2_3 > 4.632100
t_1_3 - t_1_2 - 2000.000000 u_1_2_3 > -1994.513090
t_2_2 - t_2_3 + 2000.000000 u_2_2_3 > 6.277200
t_2_3 - t_2_2 - 2000.000000 u_2_2_3 > -1990.509900
t_1_2 - t_1_4 + 2000.000000 u_1_2_4 > 39.317520
t_1_4 - t_1_2 - 2000.000000 u_1_2_4 > -1994.513090
t_2_2 - t_2_4 + 2000.000000 u_2_2_4 > 58.718200
t_2_4 - t_2_2 - 2000.000000 u_2_2_4 > -1990.509900
t_1_5 - t_1_2 - 2000.000000 s_1_2 > -1990.657623
t_1_5 - t_2_2 - 2000.000000 s_2_2 > -1982.798967
t_2_5 - t_1_2 - 2000.000000 s_1_2 > -1990.657623
t_2_5 - t_2_2 - 2000.000000 s_2_2 > -1982.798967
t_1_3 - t_1_1 + 2000.000000 u_1_3_1 > 21.355400
t_1_1 - t_1_3 - 2000.000000 u_1_3_1 > -1995.367900
t_2_3 - t_2_1 + 2000.000000 u_2_3_1 > 32.575500
t_2_1 - t_2_3 - 2000.000000 u_2_3_1 > -1993.722800
t_1_3 - t_1_2 + 2000.000000 u_1_3_2 > 5.486910
t_1_2 - t_1_3 - 2000.000000 u_1_3_2 > -1995.367900
t_2_3 - t_2_2 + 2000.000000 u_2_3_2 > 9.490100
t_2_2 - t_2_3 - 2000.000000 u_2_3_2 > -1993.722800
t_1_3 - t_1_4 + 2000.000000 u_1_3_4 > 39.317520
t_1_4 - t_1_3 - 2000.000000 u_1_3_4 > -1995.367900
t_2_3 - t_2_4 + 2000.000000 u_2_3_4 > 58.718200
t_2_4 - t_2_3 - 2000.000000 u_2_3_4 > -1993.722800
t_1_5 - t_1_3 - 2000.000000 s_1_3 > -1991.512433
t_1_5 - t_2_3 - 2000.000000 s_2_3 > -1986.011867
t_2_5 - t_1_3 - 2000.000000 s_1_3 > -1991.512433
t_2_5 - t_2_3 - 2000.000000 s_2_3 > -1986.011867
t_1_4 - t_1_1 + 2000.000000 u_1_4_1 > 21.355400
t_1_1 - t_1_4 - 2000.000000 u_1_4_1 > -1960.682480
t_2_4 - t_2_1 + 2000.000000 u_2_4_1 > 32.575500
t_2_1 - t_2_4 - 2000.000000 u_2_4_1 > -1941.281800
t_1_4 - t_1_2 + 2000.000000 u_1_4_2 > 5.486910
t_1_2 - t_1_4 - 2000.000000 u_1_4_2 > -1960.682480
t_2_4 - t_2_2 + 2000.000000 u_2_4_2 > 9.490100
t_2_2 - t_2_4 - 2000.000000 u_2_4_2 > -1941.281800
t_1_4 - t_1_3 + 2000.000000 u_1_4_3 > 4.632100
t_1_3 - t_1_4 - 2000.000000 u_1_4_3 > -1960.682480
t_2_4 - t_2_3 + 2000.000000 u_2_4_3 > 6.277200
t_2_3 - t_2_4 - 2000.000000 u_2_4_3 > -1941.281800
t_1_5 - t_1_4 - 2000.000000 s_1_4 > -1956.827013
t_1_5 - t_2_4 - 2000.000000 s_2_4 > -1933.570867
t_2_5 - t_1_4 - 2000.000000 s_1_4 > -1956.827013
t_2_5 - t_2_4 - 2000.000000 s_2_4 > -1933.570867
t_1_5 - t_1_1 - 2000.000000 s_1_1 > -1974.789133
t_1_5 - t_2_1 - 2000.000000 s_2_1 > -1959.713567
t_2_5 - t_1_1 - 2000.000000 s_1_1 > -1974.789133
t_2_5 - t_2_1 - 2000.000000 s_2_1 > -1959.713567
t_1_5 - t_1_2 - 2000.000000 s_1_2 > -1990.657623
t_1_5 - t_2_2 - 2000.000000 s_2_2 > -1982.798967
t_2_5 - t_1_2 - 2000.000000 s_1_2 > -1990.657623
t_2_5 - t_2_2 - 2000.000000 s_2_2 > -1982.798967
t_1_5 - t_1_3 - 2000.000000 s_1_3 > -1991.512433
t_1_5 - t_2_3 - 2000.000000 s_2_3 > -1986.011867
t_2_5 - t_1_3 - 2000.000000 s_1_3 > -1991.512433
t_2_5 - t_2_3 - 2000.000000 s_2_3 > -1986.011867
t_1_5 - t_1_4 - 2000.000000 s_1_4 > -1956.827013
t_1_5 - t_2_4 - 2000.000000 s_2_4 > -1933.570867
t_2_5 - t_1_4 - 2000.000000 s_1_4 > -1956.827013
t_2_5 - t_2_4 - 2000.000000 s_2_4 > -1933.570867
Binary
s_1_1
s_2_1
s_1_2
s_2_2
s_1_3
s_2_3
s_1_4
s_2_4
s_1_5
s_2_5
u_1_1_2
u_2_1_2
u_1_1_3
u_2_1_3
u_1_1_4
u_2_1_4
u_1_2_1
u_2_2_1
u_1_2_3
u_2_2_3
u_1_2_4
u_2_2_4
u_1_3_1
u_2_3_1
u_1_3_2
u_2_3_2
u_1_3_4
u_2_3_4
u_1_4_1
u_2_4_1
u_1_4_2
u_2_4_2
u_1_4_3
u_2_4_3

End
